; benchmark generated from python API
(set-info :status unknown)
(declare-fun s () Int)
(define-funs-rec ( ( Tn_06 ((x!1 Int)) Int)
                   ( pn_06 ((x!1 Int)) Int)
                   ( Tn_01 ((x!1 Int)) Int)
                   ( pn_01 ((x!1 Int)) Int))
                 ( ((_ pn_06 0) x!1)
                   (let ((a!1 (mod (- x!1 ((_ pn_06 0) (div x!1 s))) s)))
                     (ite (= x!1 0) 0 a!1))
                   (mod ((_ pn_01 0) x!1) s)
                   (ite (= x!1 0) 0 (+ ((_ pn_01 0) (div x!1 s)) x!1))))
(assert
 (forall ((n Int) )(let ((?x256 ((_ Tn_06 0) n)))
(let ((?x257 ((_ Tn_01 0) n)))
(let (($x258 (= ?x257 ?x256)))
(let (($x259 (>= n 0)))
(=> $x259 $x258))))))
)
(check-sat)
